NAME : P = NP
TYPE : TSP
DIMENSION : 66
EDGE_WEIGHT_TYPE : EUC_2D
NODE_COORD_SECTION
0 156 443
1 342 52
2 542 359
3 785 244
4 687 123
5 331 66
6 276 322
7 293 230
8 11 99
9 1 95
10 24 18
11 42 242
12 76 331
13 67 888
14 105 0
15 410 389
16 79 61
17 232 43
18 131 246
19 18 167
20 421 375
21 70 639
22 150 42
23 63 10
24 50 169
25 594 214
26 154 391
27 135 236
28 438 191
29 364 58
30 289 201
31 158 167
32 125 180
33 133 467
34 162 15
35 144 137
36 182 15
37 532 39
38 235 1
39 532 22
40 527 16
41 99 142
42 28 856
43 260 105
44 562 167
45 239 193
46 53 2
47 15 183
48 614 66
49 131 326
50 5 34
51 115 10
52 83 39
53 458 308
54 739 82
55 481 80
56 512 164
57 727 440
58 273 211
59 391 50
60 663 41
61 42 484
62 230 305
63 104 386
64 139 26
65 520 43